54663
8, 38, 50, 20, 7, 37, 5, 35, 24, 32, 41, 13, 51, 40, 43, 3, 6, 28, 55, 26, 49, 23, 21, 22, 10, 53, 34, 54, 47, 30, 4, 18, 12, 9, 14, 2, 45, 11, 25, 31, 27, 1, 33, 42, 52, 15, 36, 46, 39, 16, 29, 17, 48, 19, 44
